casoBase.dzn
% Generado automaticamente desde C:/Users/andres/Desktop/SEPTIMO SEMESTRE/ADAII/proyecto_final/Proyecto-Optimizacion-ADA2/BateriaPruebas_2025_2_P2/casoBase.txt

n = 10;
m = 3;
ct = 25.0;
maxMovs = 7;
v = [0.297, 0.673, 0.809];
p = [3, 3, 4];
s = [| 1, 2, 0 | 0, 3, 0 | 2, 1, 1 |];
