BateriaPruebas_2025_2_P2-txt/casoBase.txt
10
3
3,3,4
0.297,0.673,0.809
1,2,0
0,3,0
2,1,1
25
5